c CNF formula generated by generate_input.py
c Number of variables: 50
c Number of clauses: 50
c Clause length: random between 1 and 4
p cnf 50 50
-19 46 0
-5 18 41 0
18 0
5 16 19 22 0
47 5 0
-17 0
6 22 -35 0
-47 -27 -43 0
-36 -16 0
-8 0
3 -22 0
-16 9 -28 0
-16 -49 0
44 16 32 0
31 -11 0
-32 33 -46 -2 0
5 -16 20 -25 0
-36 0
22 0
24 -32 0
-44 0
-49 -37 0
-16 0
4 0
34 0
-9 -38 41 -8 0
41 4 28 -47 0
47 46 -49 0
-49 0
-23 -26 -13 0
-13 30 -26 0
50 27 -11 0
36 -42 -31 0
-43 0
-24 23 -17 36 0
-19 -2 0
-4 0
39 -48 18 0
-40 25 26 27 0
23 36 0
-25 8 -12 19 0
33 49 0
31 40 -49 0
-45 3 -30 0
-40 0
-28 25 14 0
25 42 12 -16 0
44 -31 -46 0
37 -27 38 0
19 0
